W=5;
H=5;

MAX_TIME=15;
MAX_TRACKS=9;

TARGET=(5,5);

TRAINS=[(1,3,RIGHT),(1,2,RIGHT)];

INIT_POS=[
(1,2,STRAIGHT_RL),
(1,3,STRAIGHT_RL),
(3,2,STRAIGHT_RL),
(3,3,STRAIGHT_RL),
(5,5,STRAIGHT_RL),
(4,2,EMPTY),
(4,3,EMPTY),
];
TUNNEL_PAIRS=[];

GATES=[];
ACTIVATIONS=[];

DSWITCHES=[];

STATIONS=[
  (3,2,2),
  (3,3,1),
];
